SLURM_JOB_ID: 55404294
SLURM_JOB_USER: vsc34888
SLURM_JOB_ACCOUNT: lp_elect_gen_modeling
SLURM_JOB_NAME: RTS24_mod1_FYOP_loop
SLURM_CLUSTER_NAME: genius
SLURM_JOB_PARTITION: batch
SLURM_NNODES: 1
SLURM_NODELIST: r27i13n06
SLURM_JOB_CPUS_PER_NODE: 36
Date: Mon Dec  4 13:15:40 CET 2023
Walltime: 00-06:00:00
========================================================================
Activation OK
Starting runs

 #### Academic research license - for non-commercial use only #### 

Reading    input data                 ...  0 s
Setting up input data                 ...  10 s
Generating objective function         ...  11 s
Generating operation & investment     ...  0 s
Generating balance                    ...  23 s
Generating storage operation          ...  0 s
Generating generation commitment      ...  15 s
Generating generation capacity        ...  3 s
Generating network    capacity        ...  13 s
Generating network    constraints     ...  33 s
Econometric analysis  constraints     ...  0 s
Reading investment decisions from: ../E.Representative_days_based_on_Line_Benefits_OptModel/RTS24_mod1_ByStages_nc300/3.Out/oT_Result_NetworkInvestment_RTS24_mod1_ByStages_nc300.csv
Set parameter Username
Set parameter TokenServer to value "SET-S-ME-LM3.luna.kuleuven.be"
Read LP format model from file /tmp/tmp8v6jufx5.pyomo.lp
Reading time = 7.53 seconds
x1: 3101283 rows, 2092826 columns, 7721626 nonzeros
Set parameter QCPDual to value 1
Set parameter LogFile to value "RTS24_mod1/openStarNet_RTS24_mod1.log"
Set parameter Method to value 2
Set parameter MIPFocus to value 1
Set parameter Presolve to value 2
Set parameter RINS to value 100
Set parameter MIPGap to value 0.01
Set parameter Threads to value 36
Set parameter TimeLimit to value 259200
Set parameter IterationLimit to value 760000000
Gurobi Optimizer version 9.5.0 build v9.5.0rc5 (linux64)
Thread count: 36 physical cores, 36 logical processors, using up to 36 threads
Optimize a model with 3101283 rows, 2092826 columns and 7721626 nonzeros
Model fingerprint: 0x1c9043e1
Coefficient statistics:
  Matrix range     [8e-05, 3e+02]
  Objective range  [1e+00, 1e+00]
  Bounds range     [3e-05, 3e+00]
  RHS range        [3e-05, 2e+01]
Presolve removed 2583376 rows and 1178063 columns (presolve time = 5s) ...
Presolve removed 2593686 rows and 1178063 columns
Presolve time: 5.44s
Presolved: 507597 rows, 925073 columns, 2194485 nonzeros

Ordering time: 0.05s

Barrier statistics:
 AA' NZ     : 1.153e+06
 Factor NZ  : 4.066e+06 (roughly 500 MB of memory)
 Factor Ops : 4.821e+07 (less than 1 second per iteration)
 Threads    : 36

                  Objective                Residual
Iter       Primal          Dual         Primal    Dual     Compl     Time
   0   4.04097233e+06 -1.86893465e+07  5.44e+01 2.02e+00  4.40e+02     9s
   1   2.52735248e+05 -1.44076739e+07  2.87e+00 4.44e-14  3.83e+01     9s
   2   5.75129053e+04 -3.89188721e+06  4.87e-01 8.49e-14  7.11e+00     9s
   3   2.96983229e+04 -8.39795793e+05  9.70e-02 5.29e-14  1.30e+00     9s
   4   1.46004721e+04 -2.00238933e+05  7.92e-03 4.26e-14  2.80e-01     9s
   5   7.08214314e+03 -9.75565930e+04  1.75e-03 2.41e-14  1.34e-01    10s
   6   2.59483636e+03 -2.49447869e+04  4.08e-04 3.41e-14  3.52e-02    10s
   7   5.43357366e+02 -4.33896459e+03  6.44e-06 1.84e-14  6.24e-03    10s
   8   3.28085623e+02 -1.68865663e+03  3.92e-08 1.42e-14  2.58e-03    10s
   9   2.26581157e+02 -8.63995870e+02  1.07e-08 1.42e-14  1.39e-03    10s
  10   1.78636592e+02 -3.08504078e+02  5.65e-09 1.42e-14  6.22e-04    10s
  11   1.20617555e+02 -1.02238824e+02  1.89e-09 1.42e-14  2.85e-04    11s
  12   8.98510144e+01  2.71943140e+01  4.37e-10 1.42e-14  8.00e-05    11s
  13   8.14507597e+01  6.49230436e+01  1.50e-10 1.42e-14  2.11e-05    11s
  14   7.86813067e+01  7.12541849e+01  6.74e-11 1.42e-14  9.49e-06    11s
  15   7.72949836e+01  7.39739668e+01  2.01e-10 1.42e-14  4.24e-06    11s
  16   7.67085668e+01  7.52353874e+01  1.45e-10 1.42e-14  1.88e-06    11s
  17   7.64298498e+01  7.58366122e+01  3.75e-10 1.42e-14  7.58e-07    12s
  18   7.63005945e+01  7.61465663e+01  7.12e-10 1.42e-14  1.97e-07    12s
  19   7.62665572e+01  7.62048140e+01  9.38e-10 1.42e-14  7.89e-08    12s
  20   7.62473173e+01  7.62389586e+01  1.97e-09 1.42e-14  1.07e-08    12s
  21   7.62437901e+01  7.62421631e+01  3.13e-09 1.42e-14  2.08e-09    12s
  22   7.62433337e+01  7.62432875e+01  8.18e-09 1.42e-14  5.90e-11    12s
  23   7.62432985e+01  7.62432969e+01  8.69e-10 1.42e-14  2.05e-12    13s
  24   7.62432973e+01  7.62432973e+01  1.33e-10 1.42e-14  2.05e-15    13s

Barrier solved model in 24 iterations and 12.81 seconds (11.35 work units)
Optimal objective 7.62432973e+01

Crossover log...

  111189 DPushes remaining with DInf 1.8342558e-02                13s
       0 DPushes remaining with DInf 1.8088387e-02                14s

   40608 PPushes remaining with PInf 0.0000000e+00                14s
   16410 PPushes remaining with PInf 0.0000000e+00                15s
       0 PPushes remaining with PInf 0.0000000e+00                18s

  Push phase complete: Pinf 0.0000000e+00, Dinf 3.1131385e-13     19s

Iteration    Objective       Primal Inf.    Dual Inf.      Time
   40893    7.6243297e+01   0.000000e+00   0.000000e+00     21s

Use crossover to convert LP symmetric solution to basic solution...
Crossover log...

    1950 DPushes remaining with DInf 0.0000000e+00                23s
       0 DPushes remaining with DInf 0.0000000e+00                25s

   24574 PPushes remaining with PInf 0.0000000e+00                25s
    2749 PPushes remaining with PInf 0.0000000e+00                30s
       0 PPushes remaining with PInf 0.0000000e+00                33s

  Push phase complete: Pinf 0.0000000e+00, Dinf 4.7921094e-13     33s

Iteration    Objective       Primal Inf.    Dual Inf.      Time
   67142    7.6243297e+01   0.000000e+00   0.000000e+00     46s

Solved in 67142 iterations and 45.68 seconds (40.54 work units)
Optimal objective  7.624329730e+01
Termination condition:  optimal
# ==========================================================
# = Solver Results                                         =
# ==========================================================
# ----------------------------------------------------------
#   Problem Information
# ----------------------------------------------------------
Problem: 
- Name: x1
  Lower bound: 76.24329729860492
  Upper bound: 76.24329729860492
  Number of objectives: 1
  Number of constraints: 3101283
  Number of variables: 2092826
  Number of binary variables: 0
  Number of integer variables: 0
  Number of continuous variables: 2092826
  Number of nonzeros: 7721626
  Sense: minimize
# ----------------------------------------------------------
#   Solver Information
# ----------------------------------------------------------
Solver: 
- Status: ok
  Return code: 0
  Message: Model was solved to optimality (subject to tolerances), and an optimal solution is available.
  Termination condition: optimal
  Termination message: Model was solved to optimality (subject to tolerances), and an optimal solution is available.
  Wall time: 45.680095911026
  Error rc: 0
  Time: 71.52214622497559
# ----------------------------------------------------------
#   Solution Information
# ----------------------------------------------------------
Solution: 
- number of solutions: 0
  number of solutions displayed: 0
Solving                               ...  162 s
Objective function value                   76.24 M€
Objective function value                   76.24329729860492
Writing         cost summary results  ...  0 s
Writing         cost summary results  ...  0 s
Writing           investment results  ...  0 s
Reading investment decisions from: ../E.Representative_days_based_on_Line_Benefits_OptModel/RTS24_mod1_ByStages_nc350/3.Out/oT_Result_NetworkInvestment_RTS24_mod1_ByStages_nc350.csv
WARNING: Implicitly replacing the Component attribute dual (type=<class
'pyomo.core.base.suffix.Suffix'>) on block 'openStarNet - Open Version of the
StartNetLite Model (Long Term Transmission Expansion Planning) - Version 1.0.0
- January 16, 2023' with a new Component (type=<class
'pyomo.core.base.suffix.Suffix'>). This is usually indicative of a modelling
error. To avoid this warning, use block.del_component() and
block.add_component().
WARNING: Implicitly replacing the Component attribute rc (type=<class
'pyomo.core.base.suffix.Suffix'>) on block 'openStarNet - Open Version of the
StartNetLite Model (Long Term Transmission Expansion Planning) - Version 1.0.0
- January 16, 2023' with a new Component (type=<class
'pyomo.core.base.suffix.Suffix'>). This is usually indicative of a modelling
error. To avoid this warning, use block.del_component() and
block.add_component().
Set parameter Username
Set parameter TokenServer to value "SET-S-ME-LM3.luna.kuleuven.be"
Read LP format model from file /tmp/tmp5mwcnlau.pyomo.lp
Reading time = 7.50 seconds
x1: 3101283 rows, 2092826 columns, 7721626 nonzeros
Set parameter QCPDual to value 1
Set parameter LogFile to value "RTS24_mod1/openStarNet_RTS24_mod1.log"
Set parameter Method to value 2
Set parameter MIPFocus to value 1
Set parameter Presolve to value 2
Set parameter RINS to value 100
Set parameter MIPGap to value 0.01
Set parameter Threads to value 36
Set parameter TimeLimit to value 259200
Set parameter IterationLimit to value 760000000
Gurobi Optimizer version 9.5.0 build v9.5.0rc5 (linux64)
Thread count: 36 physical cores, 36 logical processors, using up to 36 threads
Optimize a model with 3101283 rows, 2092826 columns and 7721626 nonzeros
Model fingerprint: 0x1c9043e1
Coefficient statistics:
  Matrix range     [8e-05, 3e+02]
  Objective range  [1e+00, 1e+00]
  Bounds range     [3e-05, 3e+00]
  RHS range        [3e-05, 2e+01]
Presolve removed 2583376 rows and 1178063 columns (presolve time = 5s) ...
Presolve removed 2593686 rows and 1178063 columns
Presolve time: 5.35s
Presolved: 507597 rows, 925073 columns, 2194485 nonzeros

Ordering time: 0.05s

Barrier statistics:
 AA' NZ     : 1.153e+06
 Factor NZ  : 4.066e+06 (roughly 500 MB of memory)
 Factor Ops : 4.821e+07 (less than 1 second per iteration)
 Threads    : 36

                  Objective                Residual
Iter       Primal          Dual         Primal    Dual     Compl     Time
   0   4.04097233e+06 -1.86893465e+07  5.44e+01 2.02e+00  4.40e+02     8s
   1   2.52735248e+05 -1.44076739e+07  2.87e+00 4.44e-14  3.83e+01     9s
   2   5.75129053e+04 -3.89188721e+06  4.87e-01 8.49e-14  7.11e+00     9s
   3   2.96983229e+04 -8.39795793e+05  9.70e-02 5.29e-14  1.30e+00     9s
   4   1.46004721e+04 -2.00238933e+05  7.92e-03 4.26e-14  2.80e-01     9s
   5   7.08214314e+03 -9.75565930e+04  1.75e-03 2.41e-14  1.34e-01    10s
   6   2.59483636e+03 -2.49447869e+04  4.08e-04 3.41e-14  3.52e-02    10s
   7   5.43357366e+02 -4.33896459e+03  6.44e-06 1.84e-14  6.24e-03    10s
   8   3.28085623e+02 -1.68865663e+03  3.92e-08 1.42e-14  2.58e-03    10s
   9   2.26581157e+02 -8.63995870e+02  1.07e-08 1.42e-14  1.39e-03    10s
  10   1.78636592e+02 -3.08504078e+02  5.65e-09 1.42e-14  6.22e-04    10s
  11   1.20617555e+02 -1.02238824e+02  1.89e-09 1.42e-14  2.85e-04    11s
  12   8.98510144e+01  2.71943140e+01  4.37e-10 1.42e-14  8.00e-05    11s
  13   8.14507597e+01  6.49230436e+01  1.50e-10 1.42e-14  2.11e-05    11s
  14   7.86813067e+01  7.12541849e+01  6.74e-11 1.42e-14  9.49e-06    11s
  15   7.72949836e+01  7.39739668e+01  2.01e-10 1.42e-14  4.24e-06    11s
  16   7.67085668e+01  7.52353874e+01  1.45e-10 1.42e-14  1.88e-06    12s
  17   7.64298498e+01  7.58366122e+01  3.75e-10 1.42e-14  7.58e-07    12s
  18   7.63005945e+01  7.61465663e+01  7.12e-10 1.42e-14  1.97e-07    12s
  19   7.62665572e+01  7.62048140e+01  9.38e-10 1.42e-14  7.89e-08    12s
  20   7.62473173e+01  7.62389586e+01  1.97e-09 1.42e-14  1.07e-08    12s
  21   7.62437901e+01  7.62421631e+01  3.13e-09 1.42e-14  2.08e-09    12s
  22   7.62433337e+01  7.62432875e+01  8.18e-09 1.42e-14  5.90e-11    13s
  23   7.62432985e+01  7.62432969e+01  8.69e-10 1.42e-14  2.05e-12    13s
  24   7.62432973e+01  7.62432973e+01  1.33e-10 1.42e-14  2.05e-15    13s

Barrier solved model in 24 iterations and 12.87 seconds (11.35 work units)
Optimal objective 7.62432973e+01

Crossover log...

  111189 DPushes remaining with DInf 1.8342558e-02                13s
       0 DPushes remaining with DInf 1.8088387e-02                14s

   40608 PPushes remaining with PInf 0.0000000e+00                14s
   16410 PPushes remaining with PInf 0.0000000e+00                15s
       0 PPushes remaining with PInf 0.0000000e+00                19s

  Push phase complete: Pinf 0.0000000e+00, Dinf 3.1131385e-13     19s

Iteration    Objective       Primal Inf.    Dual Inf.      Time
   40893    7.6243297e+01   0.000000e+00   0.000000e+00     21s

Use crossover to convert LP symmetric solution to basic solution...
Crossover log...

    1950 DPushes remaining with DInf 0.0000000e+00                23s
       0 DPushes remaining with DInf 0.0000000e+00                26s

   24574 PPushes remaining with PInf 0.0000000e+00                26s
    2749 PPushes remaining with PInf 0.0000000e+00                31s
       0 PPushes remaining with PInf 0.0000000e+00                34s

  Push phase complete: Pinf 0.0000000e+00, Dinf 4.7921094e-13     34s

Iteration    Objective       Primal Inf.    Dual Inf.      Time
   67142    7.6243297e+01   0.000000e+00   0.000000e+00     47s

Solved in 67142 iterations and 46.69 seconds (40.54 work units)
Optimal objective  7.624329730e+01
Termination condition:  optimal
# ==========================================================
# = Solver Results                                         =
# ==========================================================
# ----------------------------------------------------------
#   Problem Information
# ----------------------------------------------------------
Problem: 
- Name: x1
  Lower bound: 76.24329729860492
  Upper bound: 76.24329729860492
  Number of objectives: 1
  Number of constraints: 3101283
  Number of variables: 2092826
  Number of binary variables: 0
  Number of integer variables: 0
  Number of continuous variables: 2092826
  Number of nonzeros: 7721626
  Sense: minimize
# ----------------------------------------------------------
#   Solver Information
# ----------------------------------------------------------
Solver: 
- Status: ok
  Return code: 0
  Message: Model was solved to optimality (subject to tolerances), and an optimal solution is available.
  Termination condition: optimal
  Termination message: Model was solved to optimality (subject to tolerances), and an optimal solution is available.
  Wall time: 46.68708896636963
  Error rc: 0
  Time: 71.15308237075806
# ----------------------------------------------------------
#   Solution Information
# ----------------------------------------------------------
Solution: 
- number of solutions: 0
  number of solutions displayed: 0
Solving                               ...  156 s
Objective function value                   76.24 M€
Objective function value                   76.24329729860492
Writing         cost summary results  ...  0 s
Writing         cost summary results  ...  0 s
Writing           investment results  ...  0 s
Reading investment decisions from: ../E.Representative_days_based_on_Line_Benefits_OptModel/RTS24_mod1_ByStages_nc400/3.Out/oT_Result_NetworkInvestment_RTS24_mod1_ByStages_nc400.csv
WARNING: Implicitly replacing the Component attribute dual (type=<class
'pyomo.core.base.suffix.Suffix'>) on block 'openStarNet - Open Version of the
StartNetLite Model (Long Term Transmission Expansion Planning) - Version 1.0.0
- January 16, 2023' with a new Component (type=<class
'pyomo.core.base.suffix.Suffix'>). This is usually indicative of a modelling
error. To avoid this warning, use block.del_component() and
block.add_component().
WARNING: Implicitly replacing the Component attribute rc (type=<class
'pyomo.core.base.suffix.Suffix'>) on block 'openStarNet - Open Version of the
StartNetLite Model (Long Term Transmission Expansion Planning) - Version 1.0.0
- January 16, 2023' with a new Component (type=<class
'pyomo.core.base.suffix.Suffix'>). This is usually indicative of a modelling
error. To avoid this warning, use block.del_component() and
block.add_component().
Set parameter Username
Set parameter TokenServer to value "SET-S-ME-LM3.luna.kuleuven.be"
Read LP format model from file /tmp/tmp8nohny1r.pyomo.lp
Reading time = 7.57 seconds
x1: 3101283 rows, 2092826 columns, 7721626 nonzeros
Set parameter QCPDual to value 1
Set parameter LogFile to value "RTS24_mod1/openStarNet_RTS24_mod1.log"
Set parameter Method to value 2
Set parameter MIPFocus to value 1
Set parameter Presolve to value 2
Set parameter RINS to value 100
Set parameter MIPGap to value 0.01
Set parameter Threads to value 36
Set parameter TimeLimit to value 259200
Set parameter IterationLimit to value 760000000
Gurobi Optimizer version 9.5.0 build v9.5.0rc5 (linux64)
Thread count: 36 physical cores, 36 logical processors, using up to 36 threads
Optimize a model with 3101283 rows, 2092826 columns and 7721626 nonzeros
Model fingerprint: 0x1c9043e1
Coefficient statistics:
  Matrix range     [8e-05, 3e+02]
  Objective range  [1e+00, 1e+00]
  Bounds range     [3e-05, 3e+00]
  RHS range        [3e-05, 2e+01]
Presolve removed 2583376 rows and 1178063 columns (presolve time = 5s) ...
Presolve removed 2593686 rows and 1178063 columns
Presolve time: 5.38s
Presolved: 507597 rows, 925073 columns, 2194485 nonzeros

Ordering time: 0.05s

Barrier statistics:
 AA' NZ     : 1.153e+06
 Factor NZ  : 4.066e+06 (roughly 500 MB of memory)
 Factor Ops : 4.821e+07 (less than 1 second per iteration)
 Threads    : 36

                  Objective                Residual
Iter       Primal          Dual         Primal    Dual     Compl     Time
   0   4.04097233e+06 -1.86893465e+07  5.44e+01 2.02e+00  4.40e+02     9s
   1   2.52735248e+05 -1.44076739e+07  2.87e+00 4.44e-14  3.83e+01     9s
   2   5.75129053e+04 -3.89188721e+06  4.87e-01 8.49e-14  7.11e+00     9s
   3   2.96983229e+04 -8.39795793e+05  9.70e-02 5.29e-14  1.30e+00     9s
   4   1.46004721e+04 -2.00238933e+05  7.92e-03 4.26e-14  2.80e-01     9s
   5   7.08214314e+03 -9.75565930e+04  1.75e-03 2.41e-14  1.34e-01    10s
   6   2.59483636e+03 -2.49447869e+04  4.08e-04 3.41e-14  3.52e-02    10s
   7   5.43357366e+02 -4.33896459e+03  6.44e-06 1.84e-14  6.24e-03    10s
   8   3.28085623e+02 -1.68865663e+03  3.92e-08 1.42e-14  2.58e-03    10s
   9   2.26581157e+02 -8.63995870e+02  1.07e-08 1.42e-14  1.39e-03    10s
  10   1.78636592e+02 -3.08504078e+02  5.65e-09 1.42e-14  6.22e-04    10s
  11   1.20617555e+02 -1.02238824e+02  1.89e-09 1.42e-14  2.85e-04    11s
  12   8.98510144e+01  2.71943140e+01  4.37e-10 1.42e-14  8.00e-05    11s
  13   8.14507597e+01  6.49230436e+01  1.50e-10 1.42e-14  2.11e-05    11s
  14   7.86813067e+01  7.12541849e+01  6.74e-11 1.42e-14  9.49e-06    11s
  15   7.72949836e+01  7.39739668e+01  2.01e-10 1.42e-14  4.24e-06    11s
  16   7.67085668e+01  7.52353874e+01  1.45e-10 1.42e-14  1.88e-06    11s
  17   7.64298498e+01  7.58366122e+01  3.75e-10 1.42e-14  7.58e-07    12s
  18   7.63005945e+01  7.61465663e+01  7.12e-10 1.42e-14  1.97e-07    12s
  19   7.62665572e+01  7.62048140e+01  9.38e-10 1.42e-14  7.89e-08    12s
  20   7.62473173e+01  7.62389586e+01  1.97e-09 1.42e-14  1.07e-08    12s
  21   7.62437901e+01  7.62421631e+01  3.13e-09 1.42e-14  2.08e-09    12s
  22   7.62433337e+01  7.62432875e+01  8.18e-09 1.42e-14  5.90e-11    12s
  23   7.62432985e+01  7.62432969e+01  8.69e-10 1.42e-14  2.05e-12    13s
  24   7.62432973e+01  7.62432973e+01  1.33e-10 1.42e-14  2.05e-15    13s

Barrier solved model in 24 iterations and 12.76 seconds (11.35 work units)
Optimal objective 7.62432973e+01

Crossover log...

  111189 DPushes remaining with DInf 1.8342558e-02                13s
       0 DPushes remaining with DInf 1.8088387e-02                14s

   40608 PPushes remaining with PInf 0.0000000e+00                14s
   10861 PPushes remaining with PInf 0.0000000e+00                16s
       0 PPushes remaining with PInf 0.0000000e+00                18s

  Push phase complete: Pinf 0.0000000e+00, Dinf 3.1131385e-13     18s

Iteration    Objective       Primal Inf.    Dual Inf.      Time
   40893    7.6243297e+01   0.000000e+00   0.000000e+00     21s

Use crossover to convert LP symmetric solution to basic solution...
Crossover log...

    1950 DPushes remaining with DInf 0.0000000e+00                23s
       0 DPushes remaining with DInf 0.0000000e+00                25s

   24574 PPushes remaining with PInf 0.0000000e+00                25s
    2749 PPushes remaining with PInf 0.0000000e+00                30s
       0 PPushes remaining with PInf 0.0000000e+00                33s

  Push phase complete: Pinf 0.0000000e+00, Dinf 4.7921094e-13     33s

Iteration    Objective       Primal Inf.    Dual Inf.      Time
   67142    7.6243297e+01   0.000000e+00   0.000000e+00     46s

Solved in 67142 iterations and 45.62 seconds (40.54 work units)
Optimal objective  7.624329730e+01
Termination condition:  optimal
# ==========================================================
# = Solver Results                                         =
# ==========================================================
# ----------------------------------------------------------
#   Problem Information
# ----------------------------------------------------------
Problem: 
- Name: x1
  Lower bound: 76.24329729860492
  Upper bound: 76.24329729860492
  Number of objectives: 1
  Number of constraints: 3101283
  Number of variables: 2092826
  Number of binary variables: 0
  Number of integer variables: 0
  Number of continuous variables: 2092826
  Number of nonzeros: 7721626
  Sense: minimize
# ----------------------------------------------------------
#   Solver Information
# ----------------------------------------------------------
Solver: 
- Status: ok
  Return code: 0
  Message: Model was solved to optimality (subject to tolerances), and an optimal solution is available.
  Termination condition: optimal
  Termination message: Model was solved to optimality (subject to tolerances), and an optimal solution is available.
  Wall time: 45.62386608123779
  Error rc: 0
  Time: 70.36296796798706
# ----------------------------------------------------------
#   Solution Information
# ----------------------------------------------------------
Solution: 
- number of solutions: 0
  number of solutions displayed: 0
Solving                               ...  165 s
Objective function value                   76.24 M€
Objective function value                   76.24329729860492
Writing         cost summary results  ...  0 s
Writing         cost summary results  ...  0 s
Writing           investment results  ...  0 s
